1, 26, 23, 25, 44, 45, 46, 47, 37, 24, 32, 17, 1
1, 14, 16, 19, 36, 31, 29, 28, 27, 21, 30, 22, 53, 52, 15, 1
1, 33, 34, 35, 39, 42, 43, 51, 50, 48, 49, 41, 40, 38, 20, 1
1, 3, 7, 8, 13, 10, 11, 12, 9, 5, 6, 4, 2, 18, 1
